17 11 3 20 10 19 11 15 4 7 4 11 
7 16 15 2 13 19 15 2 19 1 9 13 
2 16 7 15 1 19 10 17 5 20 8 8 
8 1 5 18 9 12 11 1 15 15 1 3 
13 3 14 2 9 13 9 13 17 20 10 13 
10 6 17 17 16 15 13 12 19 7 8 18 
20 20 6 15 11 15 15 2 14 12 9 16 
5 13 15 6 16 5 5 16 19 17 13 18 
5 11 18 12 7 9 16 13 12 6 17 20 
6 19 13 9 4 14 10 11 7 14 12 11 
16 18 2 5 20 20 16 19 3 6 5 20 
12 17 16 20 13 18 6 11 16 10 7 20 
